notebooks/out
Requirement already satisfied (use --upgrade to upgrade): Coopr in /Users/jeff/anaconda/lib/python2.7/site-packages
Requirement already satisfied (use --upgrade to upgrade): PyUtilib>=4.4.3026 in /Users/jeff/anaconda/lib/python2.7/site-packages (from Coopr)
Requirement already satisfied (use --upgrade to upgrade): coopr.age>=1.1.3 in /Users/jeff/anaconda/lib/python2.7/site-packages (from Coopr)
Requirement already satisfied (use --upgrade to upgrade): coopr.core>=1.0.1 in /Users/jeff/anaconda/lib/python2.7/site-packages (from Coopr)
Requirement already satisfied (use --upgrade to upgrade): coopr.dae>=1.1 in /Users/jeff/anaconda/lib/python2.7/site-packages (from Coopr)
Requirement already satisfied (use --upgrade to upgrade): coopr.gdp>=1.1.1 in /Users/jeff/anaconda/lib/python2.7/site-packages (from Coopr)
Requirement already satisfied (use --upgrade to upgrade): coopr.misc>=2.8.1 in /Users/jeff/anaconda/lib/python2.7/site-packages (from Coopr)
Requirement already satisfied (use --upgrade to upgrade): coopr.openopt>=1.1.2 in /Users/jeff/anaconda/lib/python2.7/site-packages (from Coopr)
Requirement already satisfied (use --upgrade to upgrade): coopr.opt>=2.11 in /Users/jeff/anaconda/lib/python2.7/site-packages (from Coopr)
Requirement already satisfied (use --upgrade to upgrade): coopr.os>=1.0.3 in /Users/jeff/anaconda/lib/python2.7/site-packages (from Coopr)
Requirement already satisfied (use --upgrade to upgrade): coopr.plugins>=3.1 in /Users/jeff/anaconda/lib/python2.7/site-packages (from Coopr)
Requirement already satisfied (use --upgrade to upgrade): coopr.pyomo>=3.5 in /Users/jeff/anaconda/lib/python2.7/site-packages (from Coopr)
Requirement already satisfied (use --upgrade to upgrade): coopr.pysos>=2.0.8 in /Users/jeff/anaconda/lib/python2.7/site-packages (from Coopr)
Requirement already satisfied (use --upgrade to upgrade): coopr.pysp>=3.4 in /Users/jeff/anaconda/lib/python2.7/site-packages (from Coopr)
Requirement already satisfied (use --upgrade to upgrade): coopr.sucasa>=2.1 in /Users/jeff/anaconda/lib/python2.7/site-packages (from Coopr)
Requirement already satisfied (use --upgrade to upgrade): ply in /Users/jeff/anaconda/lib/python2.7/site-packages (from Coopr)
Requirement already satisfied (use --upgrade to upgrade): nose in /Users/jeff/anaconda/lib/python2.7/site-packages (from Coopr)
Requirement already satisfied (use --upgrade to upgrade): six>=1.2.0 in /Users/jeff/anaconda/lib/python2.7/site-packages (from Coopr)
Requirement already satisfied (use --upgrade to upgrade): pyutilib.autotest>=2.0.1 in /Users/jeff/anaconda/lib/python2.7/site-packages (from PyUtilib>=4.4.3026->Coopr)
Requirement already satisfied (use --upgrade to upgrade): pyutilib.common>=3.0.7 in /Users/jeff/anaconda/lib/python2.7/site-packages (from PyUtilib>=4.4.3026->Coopr)
Requirement already satisfied (use --upgrade to upgrade): pyutilib.component.app>=3.2 in /Users/jeff/anaconda/lib/python2.7/site-packages (from PyUtilib>=4.4.3026->Coopr)
Requirement already satisfied (use --upgrade to upgrade): pyutilib.component.config>=3.6.1 in /Users/jeff/anaconda/lib/python2.7/site-packages (from PyUtilib>=4.4.3026->Coopr)
Requirement already satisfied (use --upgrade to upgrade): pyutilib.component.core>=4.6 in /Users/jeff/anaconda/lib/python2.7/site-packages (from PyUtilib>=4.4.3026->Coopr)
Requirement already satisfied (use --upgrade to upgrade): pyutilib.component.executables>=3.5 in /Users/jeff/anaconda/lib/python2.7/site-packages (from PyUtilib>=4.4.3026->Coopr)
Requirement already satisfied (use --upgrade to upgrade): pyutilib.component.loader>=3.4.1 in /Users/jeff/anaconda/lib/python2.7/site-packages (from PyUtilib>=4.4.3026->Coopr)
Requirement already satisfied (use --upgrade to upgrade): pyutilib.dev>=2.4 in /Users/jeff/anaconda/lib/python2.7/site-packages (from PyUtilib>=4.4.3026->Coopr)
Requirement already satisfied (use --upgrade to upgrade): pyutilib.enum>=1.2 in /Users/jeff/anaconda/lib/python2.7/site-packages (from PyUtilib>=4.4.3026->Coopr)
Requirement already satisfied (use --upgrade to upgrade): pyutilib.excel>=3.1.2 in /Users/jeff/anaconda/lib/python2.7/site-packages (from PyUtilib>=4.4.3026->Coopr)
Requirement already satisfied (use --upgrade to upgrade): pyutilib.math>=3.3.1 in /Users/jeff/anaconda/lib/python2.7/site-packages (from PyUtilib>=4.4.3026->Coopr)
Requirement already satisfied (use --upgrade to upgrade): pyutilib.misc>=5.6 in /Users/jeff/anaconda/lib/python2.7/site-packages (from PyUtilib>=4.4.3026->Coopr)
Requirement already satisfied (use --upgrade to upgrade): pyutilib.ply>=3.0.8 in /Users/jeff/anaconda/lib/python2.7/site-packages (from PyUtilib>=4.4.3026->Coopr)
Requirement already satisfied (use --upgrade to upgrade): pyutilib.pyro>=3.6 in /Users/jeff/anaconda/lib/python2.7/site-packages (from PyUtilib>=4.4.3026->Coopr)
Requirement already satisfied (use --upgrade to upgrade): pyutilib.R>=3.1 in /Users/jeff/anaconda/lib/python2.7/site-packages (from PyUtilib>=4.4.3026->Coopr)
Requirement already satisfied (use --upgrade to upgrade): pyutilib.services>=3.4 in /Users/jeff/anaconda/lib/python2.7/site-packages (from PyUtilib>=4.4.3026->Coopr)
Requirement already satisfied (use --upgrade to upgrade): pyutilib.subprocess>=3.6 in /Users/jeff/anaconda/lib/python2.7/site-packages (from PyUtilib>=4.4.3026->Coopr)
Requirement already satisfied (use --upgrade to upgrade): pyutilib.svn>=1.5 in /Users/jeff/anaconda/lib/python2.7/site-packages (from PyUtilib>=4.4.3026->Coopr)
Requirement already satisfied (use --upgrade to upgrade): pyutilib.th>=5.4.1 in /Users/jeff/anaconda/lib/python2.7/site-packages (from PyUtilib>=4.4.3026->Coopr)
Requirement already satisfied (use --upgrade to upgrade): pyutilib.virtualenv>=4.2 in /Users/jeff/anaconda/lib/python2.7/site-packages (from PyUtilib>=4.4.3026->Coopr)
Requirement already satisfied (use --upgrade to upgrade): pyutilib.workflow>=3.5 in /Users/jeff/anaconda/lib/python2.7/site-packages (from PyUtilib>=4.4.3026->Coopr)
Requirement already satisfied (use --upgrade to upgrade): virtualenv<1.10 in /Users/jeff/anaconda/lib/python2.7/site-packages (from pyutilib.virtualenv>=4.2->PyUtilib>=4.4.3026->Coopr)
Cleaning up...
