notebooks/out.txt
Display statement at line 5
25.3
